p cnf 76 254
c p weight -29 1 0
c p weight 29 -1 0
c p weight 33 6.12323399573676603586882014729198302312846062338790031898128063403419218957424163818359375E-17 0
c p weight -33 1 0
c p weight 34 1 0
c p weight -34 1 0
c p weight -31 1 0
c p weight 31 -1 0
c p weight -35 1 0
c p weight 35 -1 0
c p weight -37 1 0
c p weight 37 -1 0
c p weight -40 1 0
c p weight 40 -1 0
c p weight -43 1 0
c p weight 43 -1 0
c p weight -46 1 0
c p weight 46 -1 0
c p weight -49 1 0
c p weight 49 -1 0
c p weight -52 1 0
c p weight 52 -1 0
c p weight -55 1 0
c p weight 55 -1 0
c p weight -58 1 0
c p weight 58 -1 0
c p weight -61 1 0
c p weight 61 -1 0
c p weight -64 1 0
c p weight 64 -1 0
c p weight -67 1 0
c p weight 67 -1 0
c p weight -70 1 0
c p weight 70 -1 0
c p weight -73 1 0
c p weight 73 -1 0
c p weight 76 0.5 0
c p weight -76 1 0
76 0
-27 0
-25 0
-23 0
-21 0
-19 0
-17 0
-15 0
-13 0
-11 0
-9 0
-7 0
-5 0
-3 0
-1 0
-29 27 0
-29 28 0
29 -27 -28 0
30 27 -28 0
30 -27 28 0
-30 27 28 0
-30 -27 -28 0
-31 32 0
-31 30 0
-31 -27 0
31 -32 27 -30 0
32 -27 30 0
-32 27 30 0
-33 30 0
32 -33 -27 0
-32 -33 27 0
32 33 27 -30 0
-32 33 -27 -30 0
-34 30 0
32 -34 27 0
-32 -34 -27 0
32 34 -27 -30 0
-32 34 27 -30 0
-35 32 0
-35 30 0
35 -32 -30 0
36 32 -30 0
36 -32 30 0
-36 32 30 0
-36 -32 -30 0
-37 32 0
-37 26 0
-37 25 -36 0
-37 -25 36 0
37 -32 25 36 -26 0
37 -32 -25 -36 -26 0
39 32 -25 0
39 -32 25 0
-39 32 25 0
-39 -32 -25 0
38 36 -26 0
38 -36 26 0
-38 36 26 0
-38 -36 -26 0
-40 39 0
-40 24 0
-40 23 -26 0
-40 -23 26 0
40 -39 23 26 -24 0
40 -39 -23 -26 -24 0
42 39 -23 0
42 -39 23 0
-42 39 23 0
-42 -39 -23 0
41 26 -24 0
41 -26 24 0
-41 26 24 0
-41 -26 -24 0
-43 42 0
-43 22 0
-43 21 -24 0
-43 -21 24 0
43 -42 21 24 -22 0
43 -42 -21 -24 -22 0
45 42 -21 0
45 -42 21 0
-45 42 21 0
-45 -42 -21 0
44 24 -22 0
44 -24 22 0
-44 24 22 0
-44 -24 -22 0
-46 45 0
-46 20 0
-46 19 -22 0
-46 -19 22 0
46 -45 19 22 -20 0
46 -45 -19 -22 -20 0
48 45 -19 0
48 -45 19 0
-48 45 19 0
-48 -45 -19 0
47 22 -20 0
47 -22 20 0
-47 22 20 0
-47 -22 -20 0
-49 48 0
-49 18 0
-49 17 -20 0
-49 -17 20 0
49 -48 17 20 -18 0
49 -48 -17 -20 -18 0
51 48 -17 0
51 -48 17 0
-51 48 17 0
-51 -48 -17 0
50 20 -18 0
50 -20 18 0
-50 20 18 0
-50 -20 -18 0
-52 51 0
-52 16 0
-52 15 -18 0
-52 -15 18 0
52 -51 15 18 -16 0
52 -51 -15 -18 -16 0
54 51 -15 0
54 -51 15 0
-54 51 15 0
-54 -51 -15 0
53 18 -16 0
53 -18 16 0
-53 18 16 0
-53 -18 -16 0
-55 54 0
-55 14 0
-55 13 -16 0
-55 -13 16 0
55 -54 13 16 -14 0
55 -54 -13 -16 -14 0
57 54 -13 0
57 -54 13 0
-57 54 13 0
-57 -54 -13 0
56 16 -14 0
56 -16 14 0
-56 16 14 0
-56 -16 -14 0
-58 57 0
-58 12 0
-58 11 -14 0
-58 -11 14 0
58 -57 11 14 -12 0
58 -57 -11 -14 -12 0
60 57 -11 0
60 -57 11 0
-60 57 11 0
-60 -57 -11 0
59 14 -12 0
59 -14 12 0
-59 14 12 0
-59 -14 -12 0
-61 60 0
-61 10 0
-61 9 -12 0
-61 -9 12 0
61 -60 9 12 -10 0
61 -60 -9 -12 -10 0
63 60 -9 0
63 -60 9 0
-63 60 9 0
-63 -60 -9 0
62 12 -10 0
62 -12 10 0
-62 12 10 0
-62 -12 -10 0
-64 63 0
-64 8 0
-64 7 -10 0
-64 -7 10 0
64 -63 7 10 -8 0
64 -63 -7 -10 -8 0
66 63 -7 0
66 -63 7 0
-66 63 7 0
-66 -63 -7 0
65 10 -8 0
65 -10 8 0
-65 10 8 0
-65 -10 -8 0
-67 66 0
-67 6 0
-67 5 -8 0
-67 -5 8 0
67 -66 5 8 -6 0
67 -66 -5 -8 -6 0
69 66 -5 0
69 -66 5 0
-69 66 5 0
-69 -66 -5 0
68 8 -6 0
68 -8 6 0
-68 8 6 0
-68 -8 -6 0
-70 69 0
-70 4 0
-70 3 -6 0
-70 -3 6 0
70 -69 3 6 -4 0
70 -69 -3 -6 -4 0
72 69 -3 0
72 -69 3 0
-72 69 3 0
-72 -69 -3 0
71 6 -4 0
71 -6 4 0
-71 6 4 0
-71 -6 -4 0
-73 72 0
-73 2 0
-73 1 -4 0
-73 -1 4 0
73 -72 1 4 -2 0
73 -72 -1 -4 -2 0
75 72 -1 0
75 -72 1 0
-75 72 1 0
-75 -72 -1 0
74 4 -2 0
74 -4 2 0
-74 4 2 0
-74 -4 -2 0
-75 0
-72 0
-74 0
-69 0
-71 0
-66 0
-68 0
-63 0
-65 0
-60 0
-62 0
-57 0
-59 0
-54 0
-56 0
-51 0
-53 0
-48 0
-50 0
-45 0
-47 0
-42 0
-44 0
-39 0
-41 0
-32 0
-38 0
